<number of tasks>
11

<cycle time>
94

<task times>
1 4
2 38
3 45
4 12
5 10
6 8
7 12
8 10
9 2
10 10
11 34

<precedence relations>
1,4
2,4
2,5
3,11
4,6
5,7
6,8
7,9
8,10
9,10
10,11

<setup times forward>
1,2:6
1,3:6
1,5:6
2,1:6
2,4:6
3,1:6
3,4:6
3,6:6
3,7:6
3,8:6
3,9:6
3,10:6
3,11:6
4,3:6
4,5:6
5,1:6
5,4:6
5,6:6
5,7:6
5,8:6
6,3:6
6,5:6
7,3:6
8,3:6
8,5:6
9,3:6
10,3:6

<setup times backward>
1,1:1
1,2:7
1,3:7
1,5:7
1,7:1
1,9:1
2,2:1
2,3:1
3,2:1
3,3:1
3,5:1
4,1:1
4,2:7
4,3:7
4,4:1
4,5:7
4,7:1
4,9:1
5,2:1
5,3:1
5,5:1
6,1:1
6,2:7
6,3:7
6,4:1
6,5:7
6,6:1
6,7:1
6,9:1
7,1:1
7,2:7
7,3:7
7,4:1
7,5:7
7,6:1
7,7:1
7,8:1
8,1:1
8,2:7
8,3:7
8,4:1
8,5:7
8,6:1
8,7:1
8,8:1
8,9:1
9,1:1
9,2:7
9,3:7
9,4:1
9,5:7
9,6:1
9,7:1
9,8:1
9,9:1
10,1:1
10,2:7
10,3:7
10,4:1
10,5:7
10,6:1
10,7:1
10,8:1
10,9:1
10,10:1
11,1:1
11,2:7
11,3:7
11,4:1
11,5:7
11,6:1
11,7:1
11,8:1
11,9:1
11,10:1
11,11:1

<end>

<optimal SALBP-1 value>
2


<rand seed>
467321153

